c turning on binary mode checking
c parsing input formula with 202048 variables and 780980 clauses
c finished parsing, read 2348650 bytes from proof file
c detected empty clause; start verification via backward checking
c 5654 of 780980 clauses in core                            
c 1916 of 92420 lemmas in core using 45753 resolution steps
c 0 RAT lemmas in core; 157 redundant literals in core lemmas
s VERIFIED
c verification time: 1.096 seconds
